Problem:    
Rows:       256
Columns:    89 (72 integer, 72 binary)
Non-zeros:  960
Status:     INTEGER OPTIMAL
Objective:  value = 191.411894 (MINimum)

   No.   Row name        Activity     Lower bound   Upper bound
------ ------------    ------------- ------------- -------------
     1 r.5                   191.412             0               
     2 r.6                   110.395      -965.291               
     3 r.7                   1191.41             0               
     4 r.8                  -918.002      -962.577               
     5 r.9                   191.412             0               
     6 r.10                  124.874      -960.403               
     7 r.11                  1191.41             0               
     8 r.12                 -875.126      -959.592               
     9 r.13                  1191.41             0               
    10 r.14                 -895.191      -940.399               
    11 r.15                  191.412             0               
    12 r.16                  127.341      -936.888               
    13 r.17                  1191.41             0               
    14 r.18                 -957.585      -968.856               
    15 r.19                  191.412             0               
    16 r.20                  47.6754      -963.838               
    17 r.21                  191.412             0               
    18 r.22                  110.395      -971.355               
    19 r.23                  1191.41             0               
    20 r.24                 -957.892      -968.522               
    21 r.25                  1191.41             0               
    22 r.26                 -997.748      -997.748               
    23 r.27                  191.412             0               
    24 r.28                  18.0325       -967.78               
    25 r.29                  1191.41             0               
    26 r.30                 -808.588       -916.19               
    27 r.31                  191.412             0               
    28 r.32                  191.412       -933.08               
    29 r.33                  191.412             0               
    30 r.34                  191.412      -916.705               
    31 r.35                  1191.41             0               
    32 r.36                 -808.588      -933.462               
    33 r.37                        1             1             = 
    34 r.38                        1             1             = 
    35 r.39                        1             1             = 
    36 r.40                        1             1             = 
    37 r.41                        1             1             = 
    38 r.42                        1             1             = 
    39 r.43                        1             1             = 
    40 r.44                        1             1             = 
    41 r.45                     1000             2               
    42 r.46                    -1000         -1001               
    43 r.47                  2017.27      -960.403               
    44 r.48                        2             2               
    45 r.49                       -2         -1001               
    46 r.50                 -959.592      -959.592               
    47 r.51                     1001             2               
    48 r.52                    -1001         -1001               
    49 r.53                  1997.21      -940.399               
    50 r.54                     1001             2               
    51 r.55                    -1001         -1001               
    52 r.56                  2042.88      -936.888               
    53 r.57                     1001             2               
    54 r.58                    -1001         -1001               
    55 r.59                  1934.81      -968.856               
    56 r.60                     1001             2               
    57 r.61                    -1001         -1001               
    58 r.62                  1963.21      -963.838               
    59 r.63                     1000             2               
    60 r.64                    -1000         -1001               
    61 r.65                  2002.79      -971.355               
    62 r.66                        2             2               
    63 r.67                       -2         -1001               
    64 r.68                 -42.3572      -968.522               
    65 r.69                  99.7644      -965.291               
    66 r.70                 -928.633      -962.577               
    67 r.71                  99.7644      -965.291               
    68 r.72                 -928.633      -962.577               
    69 r.73                  -916.19       -916.19               
    70 r.74                  83.8098       -933.08               
    71 r.75                 -893.053       -916.19               
    72 r.76                  106.947       -933.08               
    73 r.77                     1000             2               
    74 r.78                    -1000         -1001               
    75 r.79                  2083.81      -916.705               
    76 r.80                        2             2               
    77 r.81                       -2         -1001               
    78 r.82                 -893.053      -933.462               
    79 r.83                     1000             2               
    80 r.84                    -1000         -1001               
    81 r.85                  1985.52       34.7094               
    82 r.86                        2             2               
    83 r.87                       -2         -1001               
    84 r.88                  957.124       37.4225               
    85 r.89                     1001             2               
    86 r.90                    -1001         -1001               
    87 r.91                  1979.94      -940.399               
    88 r.92                     1001             2               
    89 r.93                    -1001         -1001               
    90 r.94                  2002.47      -936.888               
    91 r.95                     1001             2               
    92 r.96                    -1001         -1001               
    93 r.97                  1917.54      -968.856               
    94 r.98                     1001             2               
    95 r.99                    -1001         -1001               
    96 r.100                  1922.8      -963.838               
    97 r.101                    1000             2               
    98 r.102                   -1000         -1001               
    99 r.103                 1985.52      -971.355               
   100 r.104                       2             2               
   101 r.105                      -2         -1001               
   102 r.106                -82.7656      -968.522               
   103 r.107                 114.243      -960.403               
   104 r.108                -885.757      -959.592               
   105 r.109                 114.243      -960.403               
   106 r.110                -885.757      -959.592               
   107 r.111                    1001             2               
   108 r.112                   -1001         -1001               
   109 r.113                 2066.54       -916.19               
   110 r.114                    1001             2               
   111 r.115                   -1001         -1001               
   112 r.116                 2066.54       -933.08               
   113 r.117                 66.5382      -916.705               
   114 r.118                -933.462      -933.462               
   115 r.119                 66.5382      -916.705               
   116 r.120                -933.462      -933.462               
   117 r.121                    1001             2               
   118 r.122                   -1001         -1001               
   119 r.123                 2002.79       34.7094               
   120 r.124                    1001             2               
   121 r.125                   -1001         -1001               
   122 r.126                 1957.12       37.4225               
   123 r.127                    1001             2               
   124 r.128                   -1001         -1001               
   125 r.129                 2017.27       39.5968               
   126 r.130                    1001             2               
   127 r.131                   -1001         -1001               
   128 r.132                    2000       40.4084               
   129 r.133                -940.399      -940.399               
   130 r.134                 82.1329      -936.888               
   131 r.135                -940.399      -940.399               
   132 r.136                 82.1329      -936.888               
   133 r.137                    1001             2               
   134 r.138                   -1001         -1001               
   135 r.139                 2002.79      -971.355               
   136 r.140                    1001             2               
   137 r.141                   -1001         -1001               
   138 r.142                 1917.23      -968.522               
   139 r.143                -905.821      -940.399               
   140 r.144                 116.711      -936.888               
   141 r.145                -905.821      -940.399               
   142 r.146                 116.711      -936.888               
   143 r.147                       2             2               
   144 r.148                      -2         -1001               
   145 r.149                 -916.19       -916.19               
   146 r.150                    1000             2               
   147 r.151                   -1000         -1001               
   148 r.152                 2066.54       -933.08               
   149 r.153                 83.8098      -916.705               
   150 r.154                 -916.19      -933.462               
   151 r.155                 66.5382      -916.705               
   152 r.156                -933.462      -933.462               
   153 r.157                    1001             2               
   154 r.158                   -1001         -1001               
   155 r.159                 2065.19       34.7094               
   156 r.160                    1001             2               
   157 r.161                   -1001         -1001               
   158 r.162                 2036.79       37.4225               
   159 r.163                    1001             2               
   160 r.164                   -1001         -1001               
   161 r.165                 2079.67       39.5968               
   162 r.166                    1001             2               
   163 r.167                   -1001         -1001               
   164 r.168                 2079.67       40.4084               
   165 r.169                    1001             2               
   166 r.170                   -1001         -1001               
   167 r.171                 2065.19      -971.355               
   168 r.172                    1001             2               
   169 r.173                   -1001         -1001               
   170 r.174                  1996.9      -968.522               
   171 r.175                -968.215      -968.856               
   172 r.176                 37.0449      -963.838               
   173 r.177                -968.215      -968.856               
   174 r.178                 37.0449      -963.838               
   175 r.179                       2             2               
   176 r.180                      -2         -1001               
   177 r.181                -853.796       -916.19               
   178 r.182                    1000             2               
   179 r.183                   -1000         -1001               
   180 r.184                  2146.2       -933.08               
   181 r.185                 146.204      -916.705               
   182 r.186                -853.796      -933.462               
   183 r.187                 146.204      -916.705               
   184 r.188                -853.796      -933.462               
   185 r.189                    1000             2               
   186 r.190                   -1000         -1001               
   187 r.191                 2002.79       34.7094               
   188 r.192                       2             2               
   189 r.193                      -2         -1001               
   190 r.194                 37.4225       37.4225               
   191 r.195                    1000             2               
   192 r.196                   -1000         -1001               
   193 r.197                 2017.27       39.5968               
   194 r.198                       2             2               
   195 r.199                      -2         -1001               
   196 r.200                 80.2983       40.4084               
   197 r.201                    1001             2               
   198 r.202                   -1001         -1001               
   199 r.203                 1997.21       59.6012               
   200 r.204                    1001             2               
   201 r.205                   -1001         -1001               
   202 r.206                 2082.77       63.1116               
   203 r.207                    1001             2               
   204 r.208                   -1001         -1001               
   205 r.209                 1934.81       31.1437               
   206 r.210                    1001             2               
   207 r.211                   -1001         -1001               
   208 r.212                  2003.1       36.1622               
   209 r.213                 99.7644      -971.355               
   210 r.214                -968.522      -968.522               
   211 r.215                 99.7644      -971.355               
   212 r.216                -968.522      -968.522               
   213 r.217                 -916.19       -916.19               
   214 r.218                 83.8098       -933.08               
   215 r.219                -853.164       -916.19               
   216 r.220                 146.836       -933.08               
   217 r.221                 83.8098      -916.705               
   218 r.222                 -916.19      -933.462               
   219 r.223                 146.836      -916.705               
   220 r.224                -853.164      -933.462               
   221 r.225                    1001             2               
   222 r.226                   -1001         -1001               
   223 r.227                 1933.46       39.5968               
   224 r.228                    1001             2               
   225 r.229                   -1001         -1001               
   226 r.230                 1933.46       40.4084               
   227 r.231                       2             2               
   228 r.232                      -2         -1001               
   229 r.233                 913.397       59.6012               
   230 r.234                    1000             2               
   231 r.235                   -1000         -1001               
   232 r.236                 1935.93       63.1116               
   233 r.237                       2             2               
   234 r.238                      -2         -1001               
   235 r.239                 851.003       31.1437               
   236 r.240                    1000             2               
   237 r.241                   -1000         -1001               
   238 r.242                 1856.26       36.1622               
   239 r.243                    1001             2               
   240 r.244                   -1001         -1001               
   241 r.245                    2000      -916.705               
   242 r.246                    1001             2               
   243 r.247                   -1001         -1001               
   244 r.248                    2000      -933.462               
   245 r.249                    1000             2               
   246 r.250                   -1000         -1001               
   247 r.251                 1918.98       34.7094               
   248 r.252                       2             2               
   249 r.253                      -2         -1001               
   250 r.254                 890.586       37.4225               
   251 r.255                    1001             2               
   252 r.256                   -1001         -1001               
   253 r.257                    2000       83.8098               
   254 r.258                    1001             2               
   255 r.259                   -1001         -1001               
   256 r.260                    2000       66.9202               

   No. Column name       Activity     Lower bound   Upper bound
------ ------------    ------------- ------------- -------------
     1 tt                    191.412             0               
     2 s_1_1        *              0             0             1 
     3 t_1_1                 83.8098             0               
     4 s_1_7        *              1             0             1 
     5 s_2_1        *              1             0             1 
     6 t_2_1                 106.947             0               
     7 s_2_7        *              0             0             1 
     8 s_1_2        *              0             0             1 
     9 t_1_2                 66.5382             0               
    10 s_1_8        *              0             0             1 
    11 s_2_2        *              1             0             1 
    12 t_2_2                 66.5382             0               
    13 s_2_8        *              1             0             1 
    14 s_1_3        *              1             0             1 
    15 t_1_3                 83.8098             0               
    16 s_2_3        *              0             0             1 
    17 t_2_3                 66.5382             0               
    18 s_1_4        *              1             0             1 
    19 t_1_4                 146.204             0               
    20 s_2_4        *              0             0             1 
    21 t_2_4                 146.204             0               
    22 s_1_5        *              0             0             1 
    23 t_1_5                 83.8098             0               
    24 s_2_5        *              1             0             1 
    25 t_2_5                 146.836             0               
    26 s_1_6        *              1             0             1 
    27 t_1_6                 180.781             0               
    28 s_2_6        *              0             0             1 
    29 t_2_6                 180.781             0               
    30 t_1_7                       0             0               
    31 t_2_7                       0             0               
    32 t_1_8                       0             0               
    33 t_2_8                       0             0               
    34 r_1_1_2      *              1             0             1 
    35 u_1_1_2      *              0             0             1 
    36 r_2_1_2      *              0             0             1 
    37 u_2_1_2      *              1             0             1 
    38 r_1_1_3      *              1             0             1 
    39 u_1_1_3      *              0             0             1 
    40 r_2_1_3      *              1             0             1 
    41 u_2_1_3      *              0             0             1 
    42 r_1_1_4      *              1             0             1 
    43 u_1_1_4      *              0             0             1 
    44 r_2_1_4      *              1             0             1 
    45 u_2_1_4      *              0             0             1 
    46 r_1_1_5      *              1             0             1 
    47 u_1_1_5      *              0             0             1 
    48 r_2_1_5      *              0             0             1 
    49 u_2_1_5      *              0             0             1 
    50 r_1_1_8      *              1             0             1 
    51 u_1_1_8      *              0             0             1 
    52 r_2_1_8      *              0             0             1 
    53 u_2_1_8      *              1             0             1 
    54 r_1_2_3      *              1             0             1 
    55 u_1_2_3      *              0             0             1 
    56 r_2_2_3      *              1             0             1 
    57 u_2_2_3      *              0             0             1 
    58 r_1_2_4      *              1             0             1 
    59 u_1_2_4      *              0             0             1 
    60 r_2_2_4      *              1             0             1 
    61 u_2_2_4      *              0             0             1 
    62 r_1_2_5      *              1             0             1 
    63 u_1_2_5      *              0             0             1 
    64 r_2_2_5      *              0             0             1 
    65 u_2_2_5      *              0             0             1 
    66 r_1_2_7      *              1             0             1 
    67 u_1_2_7      *              0             0             1 
    68 r_2_2_7      *              1             0             1 
    69 u_2_2_7      *              0             0             1 
    70 r_1_3_5      *              1             0             1 
    71 u_1_3_5      *              0             0             1 
    72 r_2_3_5      *              1             0             1 
    73 u_2_3_5      *              0             0             1 
    74 r_1_3_7      *              0             0             1 
    75 u_1_3_7      *              1             0             1 
    76 r_2_3_7      *              1             0             1 
    77 u_2_3_7      *              0             0             1 
    78 r_1_4_5      *              1             0             1 
    79 u_1_4_5      *              0             0             1 
    80 r_2_4_5      *              1             0             1 
    81 u_2_4_5      *              0             0             1 
    82 r_1_4_7      *              0             0             1 
    83 u_1_4_7      *              1             0             1 
    84 r_2_4_7      *              1             0             1 
    85 u_2_4_7      *              0             0             1 
    86 r_1_7_8      *              1             0             1 
    87 u_1_7_8      *              0             0             1 
    88 r_2_7_8      *              1             0             1 
    89 u_2_7_8      *              0             0             1 

Integer feasibility conditions:

KKT.PE: max.abs.err = 4.55e-13 on row 138
        max.rel.err = 1.10e-16 on row 138
        High quality

KKT.PB: max.abs.err = 2.27e-13 on row 22
        max.rel.err = 2.28e-16 on row 22
        High quality

End of output
